






































































































39 28 38 66 55 60 58 
75 16 3 47 2 63 10 
22 42 4 56 12 9 
23 14 76 0 35 1 
74 11 6 30 69 29 
33 59 26 72 70 68 48 
32 15 51 73 64 34 71 
19 36 8 41 17 57 
40 13 53 18 62 61 45 
25 21 43 65 50 54 
67 31 5 46 49 52 24 
27 7 44 37 20 
